
Gurobi 11.0.0 (linux64) logging started Sat Sep 21 21:36:21 2024

Set parameter LogFile to value "/lustre1/scratch/348/vsc34888/JointResearch/05.Models/06.Benchmarking/K.Investments_per_hour/IEEE118_mod1_ByStages_nc140/openStarNet_IEEE118_mod1_ByStages_nc140.log"
Set parameter Method to value 2
Set parameter MIPFocus to value 1
Set parameter Presolve to value 2
Set parameter RINS to value 100
Set parameter MIPGap to value 0.01
Set parameter Threads to value 36
Set parameter TimeLimit to value 259200
Set parameter IterationLimit to value 760000000
Gurobi Optimizer version 11.0.0 build v11.0.0rc2 (linux64 - "Rocky Linux 8.9 (Green Obsidian)")

CPU model: Intel(R) Xeon(R) Gold 6240 CPU @ 2.60GHz, instruction set [SSE2|AVX|AVX2|AVX512]
Thread count: 36 physical cores, 36 logical processors, using up to 36 threads

Optimize a model with 198943 rows, 146783 columns and 492956 nonzeros
Model fingerprint: 0x3162f0c6
Coefficient statistics:
  Matrix range     [5e-04, 9e+03]
  Objective range  [1e+00, 1e+00]
  Bounds range     [1e-04, 3e+00]
  RHS range        [2e-04, 3e+00]
Presolve removed 150766 rows and 69037 columns
Presolve time: 0.32s
Presolved: 48177 rows, 80097 columns, 194467 nonzeros

Ordering time: 0.01s

Barrier statistics:
 AA' NZ     : 1.768e+05
 Factor NZ  : 6.422e+05 (roughly 60 MB of memory)
 Factor Ops : 9.641e+06 (less than 1 second per iteration)
 Threads    : 36

                  Objective                Residual
Iter       Primal          Dual         Primal    Dual     Compl     Time
   0   1.64790100e+07 -2.91709851e+08  9.49e+01 5.90e+01  8.09e+03     0s
   1   1.64082502e+06 -9.73784917e+07  8.11e+00 6.94e-13  9.86e+02     0s
   2   4.45591630e+05 -1.83485248e+07  1.25e+00 6.25e-13  1.50e+02     0s
   3   2.00610615e+05 -2.78330350e+06  3.40e-02 6.25e-13  1.75e+01     0s
   4   1.01238916e+05 -5.25328388e+05  3.88e-03 3.98e-13  3.58e+00     0s
   5   6.09207770e+04 -1.96479654e+05  1.86e-03 3.41e-13  1.47e+00     1s
   6   4.37066312e+04 -9.49294155e+04  1.15e-03 2.27e-13  7.91e-01     1s
   7   3.16569818e+04 -4.03055111e+04  6.71e-04 1.71e-13  4.10e-01     1s
   8   2.46806658e+04 -1.51487957e+04  4.10e-04 2.27e-13  2.27e-01     1s
   9   2.01418065e+04 -2.59488278e+03  2.50e-04 1.14e-13  1.30e-01     1s
  10   1.70927786e+04  3.40840549e+03  1.51e-04 1.14e-13  7.80e-02     1s
  11   1.53010106e+04  7.43052755e+03  9.57e-05 1.14e-13  4.48e-02     1s
  12   1.34836723e+04  9.62616096e+03  4.32e-05 2.27e-13  2.20e-02     1s
  13   1.28247451e+04  1.07698982e+04  2.61e-05 1.14e-13  1.17e-02     1s
  14   1.23372507e+04  1.10438277e+04  1.40e-05 1.14e-13  7.37e-03     1s
  15   1.20924718e+04  1.12844705e+04  8.14e-06 2.27e-13  4.60e-03     1s
  16   1.19344351e+04  1.14902203e+04  4.45e-06 1.14e-13  2.53e-03     1s
  17   1.18657494e+04  1.15438106e+04  2.89e-06 1.14e-13  1.83e-03     1s
  18   1.17931004e+04  1.16558031e+04  1.30e-06 1.14e-13  7.82e-04     1s
  19   1.17639862e+04  1.16889211e+04  6.87e-07 2.27e-13  4.28e-04     1s
  20   1.17433112e+04  1.17149829e+04  2.71e-07 1.14e-13  1.61e-04     1s
  21   1.17349624e+04  1.17219925e+04  1.11e-07 2.27e-13  7.39e-05     1s
  22   1.17302373e+04  1.17269264e+04  2.58e-08 2.27e-13  1.89e-05     1s
  23   1.17288894e+04  1.17284277e+04  2.49e-09 3.41e-13  2.63e-06     1s
  24   1.17287171e+04  1.17286740e+04  2.84e-10 2.27e-13  2.46e-07     1s
  25   1.17287074e+04  1.17286980e+04  9.45e-11 1.14e-13  5.34e-08     1s
  26   1.17287024e+04  1.17287011e+04  1.55e-10 1.71e-13  7.40e-09     1s
  27   1.17287019e+04  1.17287019e+04  1.95e-10 2.27e-13  2.37e-10     1s

Barrier solved model in 27 iterations and 0.91 seconds (0.92 work units)
Optimal objective 1.17287019e+04

Crossover log...

   14124 DPushes remaining with DInf 0.0000000e+00                 1s
       0 DPushes remaining with DInf 0.0000000e+00                 1s

    1096 PPushes remaining with PInf 0.0000000e+00                 1s
       0 PPushes remaining with PInf 0.0000000e+00                 1s

  Push phase complete: Pinf 0.0000000e+00, Dinf 2.3889751e-11      1s

Extra simplex iterations after uncrush: 1
Iteration    Objective       Primal Inf.    Dual Inf.      Time
    4640    1.1728702e+04   0.000000e+00   0.000000e+00      1s

Solved in 4640 iterations and 1.36 seconds (1.18 work units)
Optimal objective  1.172870190e+04

Gurobi 11.0.0 (linux64) logging started Sat Sep 21 21:36:55 2024

Set parameter LogFile to value "/lustre1/scratch/348/vsc34888/JointResearch/05.Models/06.Benchmarking/K.Investments_per_hour/IEEE118_mod1_ByStages_nc140/openStarNet_IEEE118_mod1_ByStages_nc140.log"
Set parameter Method to value 2
Set parameter MIPFocus to value 1
Set parameter Presolve to value 2
Set parameter RINS to value 100
Set parameter MIPGap to value 0.01
Set parameter Threads to value 36
Set parameter TimeLimit to value 259200
Set parameter IterationLimit to value 760000000
Gurobi Optimizer version 11.0.0 build v11.0.0rc2 (linux64 - "Rocky Linux 8.9 (Green Obsidian)")

CPU model: Intel(R) Xeon(R) Gold 6240 CPU @ 2.60GHz, instruction set [SSE2|AVX|AVX2|AVX512]
Thread count: 36 physical cores, 36 logical processors, using up to 36 threads

Optimize a model with 198943 rows, 146783 columns and 492956 nonzeros
Model fingerprint: 0xf89226c6
Coefficient statistics:
  Matrix range     [5e-04, 9e+03]
  Objective range  [1e+00, 1e+00]
  Bounds range     [1e-04, 3e+00]
  RHS range        [2e-04, 3e+00]
Presolve removed 150369 rows and 68500 columns
Presolve time: 0.29s
Presolved: 48574 rows, 80494 columns, 191624 nonzeros

Ordering time: 0.01s

Barrier statistics:
 AA' NZ     : 1.642e+05
 Factor NZ  : 6.197e+05 (roughly 60 MB of memory)
 Factor Ops : 8.680e+06 (less than 1 second per iteration)
 Threads    : 36

                  Objective                Residual
Iter       Primal          Dual         Primal    Dual     Compl     Time
   0   1.54023481e+07 -4.26841673e+08  8.27e+01 6.86e+01  1.14e+04     0s
   1   1.66878878e+06 -1.49914613e+08  7.64e+00 1.07e-12  1.50e+03     0s
   2   4.73986749e+05 -2.97483194e+07  1.26e+00 1.05e-12  2.40e+02     0s
   3   2.21326122e+05 -3.77318797e+06  3.76e-02 9.38e-13  2.35e+01     0s
   4   1.27773213e+05 -8.66496221e+05  5.63e-03 9.09e-13  5.67e+00     0s
   5   7.85575832e+04 -3.13271891e+05  2.71e-03 9.09e-13  2.23e+00     0s
   6   4.96395378e+04 -1.42494012e+05  1.32e-03 3.41e-13  1.09e+00     1s
   7   3.55535747e+04 -6.79027712e+04  7.86e-04 2.27e-13  5.87e-01     1s
   8   2.79933958e+04 -2.65822170e+04  5.09e-04 2.27e-13  3.10e-01     1s
   9   2.08471481e+04 -4.49293237e+03  2.60e-04 4.55e-13  1.44e-01     1s
  10   1.81415277e+04  3.54556186e+03  1.76e-04 2.27e-13  8.28e-02     1s
  11   1.58015501e+04  7.70724367e+03  1.08e-04 2.27e-13  4.59e-02     1s
  12   1.41952861e+04  9.87864849e+03  6.32e-05 2.27e-13  2.45e-02     1s
  13   1.32056149e+04  1.09344740e+04  3.71e-05 2.27e-13  1.29e-02     1s
  14   1.27067629e+04  1.12378385e+04  2.42e-05 2.27e-13  8.33e-03     1s
  15   1.24328825e+04  1.14333968e+04  1.73e-05 1.14e-13  5.67e-03     1s
  16   1.21760571e+04  1.15078692e+04  1.08e-05 2.27e-13  3.79e-03     1s
  17   1.20606548e+04  1.16034927e+04  7.95e-06 2.27e-13  2.59e-03     1s
  18   1.18807535e+04  1.16634187e+04  3.55e-06 2.27e-13  1.23e-03     1s
  19   1.18090990e+04  1.16864704e+04  1.84e-06 2.27e-13  6.96e-04     1s
  20   1.17638714e+04  1.17054069e+04  7.71e-07 2.27e-13  3.32e-04     1s
  21   1.17379423e+04  1.17226330e+04  1.96e-07 2.27e-13  8.68e-05     1s
  22   1.17307727e+04  1.17263813e+04  4.08e-08 2.27e-13  2.49e-05     1s
  23   1.17293944e+04  1.17278413e+04  1.28e-08 2.27e-13  8.81e-06     1s
  24   1.17288407e+04  1.17284499e+04  2.44e-09 2.27e-13  2.22e-06     1s
  25   1.17287202e+04  1.17286455e+04  3.52e-10 2.27e-13  4.23e-07     1s
  26   1.17287079e+04  1.17286921e+04  7.30e-10 2.27e-13  8.97e-08     1s
  27   1.17287022e+04  1.17287012e+04  1.94e-09 2.27e-13  5.79e-09     1s
  28   1.17287019e+04  1.17287019e+04  3.48e-10 4.55e-13  2.16e-10     1s

Barrier solved model in 28 iterations and 0.95 seconds (0.93 work units)
Optimal objective 1.17287019e+04

Crossover log...

   14194 DPushes remaining with DInf 0.0000000e+00                 1s
       0 DPushes remaining with DInf 0.0000000e+00                 1s

    1086 PPushes remaining with PInf 0.0000000e+00                 1s
       0 PPushes remaining with PInf 0.0000000e+00                 1s

  Push phase complete: Pinf 0.0000000e+00, Dinf 4.3759609e-11      1s

Extra simplex iterations after uncrush: 1
Iteration    Objective       Primal Inf.    Dual Inf.      Time
    4700    1.1728702e+04   0.000000e+00   0.000000e+00      1s

Solved in 4700 iterations and 1.43 seconds (1.20 work units)
Optimal objective  1.172870190e+04

Gurobi 11.0.0 (linux64) logging started Sat Sep 21 21:36:59 2024

Set parameter LogFile to value "/lustre1/scratch/348/vsc34888/JointResearch/05.Models/06.Benchmarking/K.Investments_per_hour/IEEE118_mod1_ByStages_nc140/openStarNet_IEEE118_mod1_ByStages_nc140.log"
Set parameter Method to value 2
Set parameter MIPFocus to value 1
Set parameter Presolve to value 2
Set parameter RINS to value 100
Set parameter MIPGap to value 0.01
Set parameter Threads to value 36
Set parameter TimeLimit to value 259200
Set parameter IterationLimit to value 760000000
Gurobi Optimizer version 11.0.0 build v11.0.0rc2 (linux64 - "Rocky Linux 8.9 (Green Obsidian)")

CPU model: Intel(R) Xeon(R) Gold 6240 CPU @ 2.60GHz, instruction set [SSE2|AVX|AVX2|AVX512]
Thread count: 36 physical cores, 36 logical processors, using up to 36 threads

Optimize a model with 198943 rows, 146783 columns and 492956 nonzeros
Model fingerprint: 0x3162f0c6
Coefficient statistics:
  Matrix range     [5e-04, 9e+03]
  Objective range  [1e+00, 1e+00]
  Bounds range     [1e-04, 3e+00]
  RHS range        [2e-04, 3e+00]
Presolve removed 150766 rows and 69037 columns
Presolve time: 0.32s
Presolved: 48177 rows, 80097 columns, 194467 nonzeros

Ordering time: 0.01s

Barrier statistics:
 AA' NZ     : 1.768e+05
 Factor NZ  : 6.422e+05 (roughly 60 MB of memory)
 Factor Ops : 9.641e+06 (less than 1 second per iteration)
 Threads    : 36

                  Objective                Residual
Iter       Primal          Dual         Primal    Dual     Compl     Time
   0   1.64790100e+07 -2.91709851e+08  9.49e+01 5.90e+01  8.09e+03     0s
   1   1.64082502e+06 -9.73784917e+07  8.11e+00 6.94e-13  9.86e+02     0s
   2   4.45591630e+05 -1.83485248e+07  1.25e+00 6.25e-13  1.50e+02     0s
   3   2.00610615e+05 -2.78330350e+06  3.40e-02 6.25e-13  1.75e+01     0s
   4   1.01238916e+05 -5.25328388e+05  3.88e-03 3.98e-13  3.58e+00     1s
   5   6.09207770e+04 -1.96479654e+05  1.86e-03 3.41e-13  1.47e+00     1s
   6   4.37066312e+04 -9.49294155e+04  1.15e-03 2.27e-13  7.91e-01     1s
   7   3.16569818e+04 -4.03055111e+04  6.71e-04 1.71e-13  4.10e-01     1s
   8   2.46806658e+04 -1.51487957e+04  4.10e-04 2.27e-13  2.27e-01     1s
   9   2.01418065e+04 -2.59488278e+03  2.50e-04 1.14e-13  1.30e-01     1s
  10   1.70927786e+04  3.40840549e+03  1.51e-04 1.14e-13  7.80e-02     1s
  11   1.53010106e+04  7.43052755e+03  9.57e-05 1.14e-13  4.48e-02     1s
  12   1.34836723e+04  9.62616096e+03  4.32e-05 2.27e-13  2.20e-02     1s
  13   1.28247451e+04  1.07698982e+04  2.61e-05 1.14e-13  1.17e-02     1s
  14   1.23372507e+04  1.10438277e+04  1.40e-05 1.14e-13  7.37e-03     1s
  15   1.20924718e+04  1.12844705e+04  8.14e-06 2.27e-13  4.60e-03     1s
  16   1.19344351e+04  1.14902203e+04  4.45e-06 1.14e-13  2.53e-03     1s
  17   1.18657494e+04  1.15438106e+04  2.89e-06 1.14e-13  1.83e-03     1s
  18   1.17931004e+04  1.16558031e+04  1.30e-06 1.14e-13  7.82e-04     1s
  19   1.17639862e+04  1.16889211e+04  6.87e-07 2.27e-13  4.28e-04     1s
  20   1.17433112e+04  1.17149829e+04  2.71e-07 1.14e-13  1.61e-04     1s
  21   1.17349624e+04  1.17219925e+04  1.11e-07 2.27e-13  7.39e-05     1s
  22   1.17302373e+04  1.17269264e+04  2.58e-08 2.27e-13  1.89e-05     1s
  23   1.17288894e+04  1.17284277e+04  2.49e-09 3.41e-13  2.63e-06     1s
  24   1.17287171e+04  1.17286740e+04  2.84e-10 2.27e-13  2.46e-07     1s
  25   1.17287074e+04  1.17286980e+04  9.45e-11 1.14e-13  5.34e-08     1s
  26   1.17287024e+04  1.17287011e+04  1.55e-10 1.71e-13  7.40e-09     1s
  27   1.17287019e+04  1.17287019e+04  1.95e-10 2.27e-13  2.37e-10     1s

Barrier solved model in 27 iterations and 0.97 seconds (0.92 work units)
Optimal objective 1.17287019e+04

Crossover log...

   14124 DPushes remaining with DInf 0.0000000e+00                 1s
       0 DPushes remaining with DInf 0.0000000e+00                 1s

    1096 PPushes remaining with PInf 0.0000000e+00                 1s
       0 PPushes remaining with PInf 0.0000000e+00                 1s

  Push phase complete: Pinf 0.0000000e+00, Dinf 2.3889751e-11      1s

Extra simplex iterations after uncrush: 1
Iteration    Objective       Primal Inf.    Dual Inf.      Time
    4640    1.1728702e+04   0.000000e+00   0.000000e+00      1s

Solved in 4640 iterations and 1.49 seconds (1.18 work units)
Optimal objective  1.172870190e+04

Gurobi 11.0.0 (linux64) logging started Sat Sep 21 21:37:34 2024

Set parameter LogFile to value "/lustre1/scratch/348/vsc34888/JointResearch/05.Models/06.Benchmarking/K.Investments_per_hour/IEEE118_mod1_ByStages_nc140/openStarNet_IEEE118_mod1_ByStages_nc140.log"
Set parameter Method to value 2
Set parameter MIPFocus to value 1
Set parameter Presolve to value 2
Set parameter RINS to value 100
Set parameter MIPGap to value 0.01
Set parameter Threads to value 36
Set parameter TimeLimit to value 259200
Set parameter IterationLimit to value 760000000
Gurobi Optimizer version 11.0.0 build v11.0.0rc2 (linux64 - "Rocky Linux 8.9 (Green Obsidian)")

CPU model: Intel(R) Xeon(R) Gold 6240 CPU @ 2.60GHz, instruction set [SSE2|AVX|AVX2|AVX512]
Thread count: 36 physical cores, 36 logical processors, using up to 36 threads

Optimize a model with 198943 rows, 146783 columns and 492956 nonzeros
Model fingerprint: 0xf89226c6
Coefficient statistics:
  Matrix range     [5e-04, 9e+03]
  Objective range  [1e+00, 1e+00]
  Bounds range     [1e-04, 3e+00]
  RHS range        [2e-04, 3e+00]
Presolve removed 150369 rows and 68500 columns
Presolve time: 0.29s
Presolved: 48574 rows, 80494 columns, 191624 nonzeros

Ordering time: 0.01s

Barrier statistics:
 AA' NZ     : 1.642e+05
 Factor NZ  : 6.197e+05 (roughly 60 MB of memory)
 Factor Ops : 8.680e+06 (less than 1 second per iteration)
 Threads    : 36

                  Objective                Residual
Iter       Primal          Dual         Primal    Dual     Compl     Time
   0   1.54023481e+07 -4.26841673e+08  8.27e+01 6.86e+01  1.14e+04     0s
   1   1.66878878e+06 -1.49914613e+08  7.64e+00 1.07e-12  1.50e+03     0s
   2   4.73986749e+05 -2.97483194e+07  1.26e+00 1.05e-12  2.40e+02     0s
   3   2.21326122e+05 -3.77318797e+06  3.76e-02 9.38e-13  2.35e+01     0s
   4   1.27773213e+05 -8.66496221e+05  5.63e-03 9.09e-13  5.67e+00     0s
   5   7.85575832e+04 -3.13271891e+05  2.71e-03 9.09e-13  2.23e+00     1s
   6   4.96395378e+04 -1.42494012e+05  1.32e-03 3.41e-13  1.09e+00     1s
   7   3.55535747e+04 -6.79027712e+04  7.86e-04 2.27e-13  5.87e-01     1s
   8   2.79933958e+04 -2.65822170e+04  5.09e-04 2.27e-13  3.10e-01     1s
   9   2.08471481e+04 -4.49293237e+03  2.60e-04 4.55e-13  1.44e-01     1s
  10   1.81415277e+04  3.54556186e+03  1.76e-04 2.27e-13  8.28e-02     1s
  11   1.58015501e+04  7.70724367e+03  1.08e-04 2.27e-13  4.59e-02     1s
  12   1.41952861e+04  9.87864849e+03  6.32e-05 2.27e-13  2.45e-02     1s
  13   1.32056149e+04  1.09344740e+04  3.71e-05 2.27e-13  1.29e-02     1s
  14   1.27067629e+04  1.12378385e+04  2.42e-05 2.27e-13  8.33e-03     1s
  15   1.24328825e+04  1.14333968e+04  1.73e-05 1.14e-13  5.67e-03     1s
  16   1.21760571e+04  1.15078692e+04  1.08e-05 2.27e-13  3.79e-03     1s
  17   1.20606548e+04  1.16034927e+04  7.95e-06 2.27e-13  2.59e-03     1s
  18   1.18807535e+04  1.16634187e+04  3.55e-06 2.27e-13  1.23e-03     1s
  19   1.18090990e+04  1.16864704e+04  1.84e-06 2.27e-13  6.96e-04     1s
  20   1.17638714e+04  1.17054069e+04  7.71e-07 2.27e-13  3.32e-04     1s
  21   1.17379423e+04  1.17226330e+04  1.96e-07 2.27e-13  8.68e-05     1s
  22   1.17307727e+04  1.17263813e+04  4.08e-08 2.27e-13  2.49e-05     1s
  23   1.17293944e+04  1.17278413e+04  1.28e-08 2.27e-13  8.81e-06     1s
  24   1.17288407e+04  1.17284499e+04  2.44e-09 2.27e-13  2.22e-06     1s
  25   1.17287202e+04  1.17286455e+04  3.52e-10 2.27e-13  4.23e-07     1s
  26   1.17287079e+04  1.17286921e+04  7.30e-10 2.27e-13  8.97e-08     1s
  27   1.17287022e+04  1.17287012e+04  1.94e-09 2.27e-13  5.79e-09     1s
  28   1.17287019e+04  1.17287019e+04  3.48e-10 4.55e-13  2.16e-10     1s

Barrier solved model in 28 iterations and 0.97 seconds (0.93 work units)
Optimal objective 1.17287019e+04

Crossover log...

   14194 DPushes remaining with DInf 0.0000000e+00                 1s
       0 DPushes remaining with DInf 0.0000000e+00                 1s

    1086 PPushes remaining with PInf 0.0000000e+00                 1s
       0 PPushes remaining with PInf 0.0000000e+00                 1s

  Push phase complete: Pinf 0.0000000e+00, Dinf 4.3759609e-11      1s

Extra simplex iterations after uncrush: 1
Iteration    Objective       Primal Inf.    Dual Inf.      Time
    4700    1.1728702e+04   0.000000e+00   0.000000e+00      1s

Solved in 4700 iterations and 1.44 seconds (1.20 work units)
Optimal objective  1.172870190e+04

Gurobi 11.0.3 (win64) logging started Tue Sep 24 14:19:02 2024

Set parameter LogFile to value "C:\Users\ealvarezq\Desktop\K.Investments_per_hour\IEEE118_mod1_ByStages_nc140/openStarNet_IEEE118_mod1_ByStages_nc140.log"
Set parameter Method to value 2
Set parameter MIPFocus to value 1
Set parameter Presolve to value 2
Set parameter RINS to value 100
Set parameter MIPGap to value 0.01
Set parameter Threads to value 24
Set parameter TimeLimit to value 259200
Set parameter IterationLimit to value 760000000
Gurobi Optimizer version 11.0.3 build v11.0.3rc0 (win64 - Windows Server 2019.0 (17763.2))

CPU model: AMD Ryzen Threadripper PRO 3955WX 16-Cores, instruction set [SSE2|AVX|AVX2]
Thread count: 16 physical cores, 32 logical processors, using up to 24 threads

Optimize a model with 198943 rows, 146817 columns and 512030 nonzeros
Model fingerprint: 0xc68df352
Variable types: 146783 continuous, 34 integer (34 binary)
Coefficient statistics:
  Matrix range     [5e-04, 9e+03]
  Objective range  [1e+00, 1e+00]
  Bounds range     [1e-04, 3e+00]
  RHS range        [2e-04, 3e+00]
Presolve removed 134610 rows and 67819 columns
Presolve time: 1.28s
Presolved: 64333 rows, 78998 columns, 235110 nonzeros
Variable types: 78964 continuous, 34 integer (34 binary)
Root relaxation presolved: 64333 rows, 78998 columns, 235110 nonzeros

Root barrier log...

Ordering time: 0.04s

Barrier statistics:
 Dense cols : 34
 AA' NZ     : 2.915e+05
 Factor NZ  : 1.152e+06 (roughly 70 MB of memory)
 Factor Ops : 2.541e+07 (less than 1 second per iteration)
 Threads    : 23

                  Objective                Residual
Iter       Primal          Dual         Primal    Dual     Compl     Time
   0   8.98229510e+06 -1.05850548e+09  1.57e+01 1.03e+03  2.49e+04     2s
   1   2.18961723e+06 -4.08036234e+08  3.50e+00 1.39e-08  5.18e+03     2s
   2   5.49827859e+05 -1.05690784e+08  5.64e-01 8.98e-08  8.53e+02     2s
   3   3.12469615e+05 -2.74723573e+07  1.15e-01 4.56e-09  1.76e+02     2s
   4   2.29224958e+05 -4.92647952e+06  1.37e-02 9.15e-10  2.81e+01     2s
   5   1.79786641e+05 -1.77934874e+06  6.42e-03 3.18e-10  1.05e+01     2s
   6   1.05504730e+05 -9.84482908e+05  3.21e-03 1.71e-10  5.80e+00     2s
   7   5.77022520e+04 -2.72874055e+05  1.35e-03 3.78e-11  1.75e+00     3s
   8   2.07217723e+04 -5.52393075e+04  3.18e-04 7.14e-12  4.01e-01     3s
   9   1.40780349e+04 -2.71417819e+04  1.90e-04 3.57e-12  2.17e-01     3s
  10   6.96530980e+03 -9.73372005e+03  7.13e-05 6.22e-12  8.81e-02     3s
  11   5.34050283e+03 -5.49132255e+03  4.91e-05 2.37e-12  5.71e-02     3s
  12   3.71508625e+03 -1.30378265e+03  2.89e-05 4.01e-12  2.65e-02     3s
  13   2.80964992e+03 -3.15834155e+02  1.84e-05 3.67e-12  1.65e-02     3s
  14   2.11526242e+03  3.72139184e+02  1.08e-05 4.49e-12  9.19e-03     3s
  15   1.61237335e+03  7.74740340e+02  5.27e-06 4.94e-12  4.42e-03     3s
  16   1.43761486e+03  9.10902388e+02  3.45e-06 5.37e-12  2.78e-03     3s
  17   1.34824023e+03  9.50778660e+02  2.51e-06 6.08e-12  2.10e-03     3s
  18   1.27971053e+03  1.00242532e+03  1.80e-06 2.90e-12  1.46e-03     3s
  19   1.22770207e+03  1.03094933e+03  1.26e-06 2.62e-12  1.04e-03     3s
  20   1.17370346e+03  1.05882096e+03  7.07e-07 3.05e-12  6.06e-04     3s
  21   1.14206092e+03  1.07460213e+03  3.88e-07 2.78e-12  3.56e-04     3s
  22   1.12097049e+03  1.08774688e+03  1.87e-07 1.76e-12  1.75e-04     3s
  23   1.11365264e+03  1.09506854e+03  1.11e-07 1.87e-12  9.80e-05     3s
  24   1.11016171e+03  1.09670268e+03  7.50e-08 2.40e-12  7.10e-05     3s
  25   1.10772730e+03  1.09891573e+03  5.03e-08 4.42e-12  4.65e-05     3s
  26   1.10594306e+03  1.10020539e+03  3.21e-08 3.72e-12  3.03e-05     3s
  27   1.10437474e+03  1.10089953e+03  1.63e-08 2.06e-12  1.83e-05     3s
  28   1.10364862e+03  1.10155504e+03  9.31e-09 3.30e-12  1.10e-05     3s
  29   1.10298616e+03  1.10207677e+03  3.19e-09 2.67e-12  4.80e-06     3s
  30   1.10273959e+03  1.10237466e+03  8.62e-10 3.11e-12  1.92e-06     3s
  31   1.10269030e+03  1.10247078e+03  5.65e-10 6.34e-12  1.16e-06     3s
  32   1.10267113e+03  1.10254233e+03  9.63e-10 4.85e-12  6.79e-07     3s
  33   1.10265938e+03  1.10259752e+03  1.36e-09 4.05e-12  3.26e-07     4s
  34   1.10265637e+03  1.10260275e+03  1.04e-09 2.99e-12  2.83e-07     4s
  35   1.10265310e+03  1.10262342e+03  9.44e-10 2.95e-12  1.57e-07     4s
  36   1.10264960e+03  1.10262835e+03  6.05e-10 4.87e-12  1.12e-07     4s
  37   1.10264374e+03  1.10263924e+03  1.18e-09 4.07e-12  2.37e-08     4s
  38   1.10264169e+03  1.10264093e+03  6.39e-10 3.36e-12  3.99e-09     4s
  39   1.10264124e+03  1.10264115e+03  3.66e-09 5.29e-12  4.68e-10     4s
  40   1.10264118e+03  1.10264117e+03  8.01e-09 3.18e-12  3.16e-11     4s

Barrier solved model in 40 iterations and 3.87 seconds (3.00 work units)
Optimal objective 1.10264118e+03


Root crossover log...

  Push phase complete: Pinf 0.0000000e+00, Dinf 3.5695927e-11      5s


Root simplex log...

Iteration    Objective       Primal Inf.    Dual Inf.      Time
    5595    1.1026412e+03   0.000000e+00   0.000000e+00      5s
    5595    1.1026412e+03   0.000000e+00   0.000000e+00      5s

Root relaxation: objective 1.102641e+03, 5595 iterations, 3.64 seconds (2.77 work units)

    Nodes    |    Current Node    |     Objective Bounds      |     Work
 Expl Unexpl |  Obj  Depth IntInf | Incumbent    BestBd   Gap | It/Node Time

     0     0 1102.64117    0   23          - 1102.64117      -     -    6s
H    0     0                    5774.9211668 1102.64117  80.9%     -   12s
H    0     0                    2748.5986015 1102.64117  59.9%     -   16s
     0     0 1124.89483    0   23 2748.59860 1124.89483  59.1%     -   27s
H    0     0                    1325.2511557 1124.89483  15.1%     -   31s
     0     0 1125.34867    0   23 1325.25116 1125.34867  15.1%     -   32s
     0     0 1125.34889    0   23 1325.25116 1125.34889  15.1%     -   32s
     0     0 1127.18014    0   25 1325.25116 1127.18014  14.9%     -   35s
     0     0 1127.20707    0   24 1325.25116 1127.20707  14.9%     -   36s
     0     0 1127.20746    0   24 1325.25116 1127.20746  14.9%     -   36s
     0     0 1127.35296    0   23 1325.25116 1127.35296  14.9%     -   40s
     0     0 1127.35350    0   23 1325.25116 1127.35350  14.9%     -   41s
     0     0 1128.89218    0   22 1325.25116 1128.89218  14.8%     -   47s
     0     0 1128.89915    0   21 1325.25116 1128.89915  14.8%     -   49s
     0     0 1128.89916    0   21 1325.25116 1128.89916  14.8%     -   49s
     0     0 1128.93269    0   21 1325.25116 1128.93269  14.8%     -   53s
H    0     0                    1262.4836035 1128.93269  10.6%     -  781s
     0     2 1128.93269    0   21 1262.48360 1128.93269  10.6%     -  783s
     1     4 1182.55865    1   22 1262.48360 1129.01666  10.6%  5936  791s
     3     8 1255.65425    2   19 1262.48360 1139.99554  9.70%  5740  811s
     7    12     cutoff    3      1262.48360 1158.52374  8.23%  3996  826s
    15    20 1172.53451    4   18 1262.48360 1163.25267  7.86%  3459  833s
    27    36 1233.40698    5   18 1262.48360 1172.48617  7.13%  2851  873s
    47    58 1247.29221    6   18 1262.48360 1177.78059  6.71%  2816  881s
    71    72     cutoff    7      1262.48360 1178.38599  6.66%  2716  902s
    95    80 1258.52825    7   17 1262.48360 1178.38599  6.66%  2424  922s
   119    86     cutoff    8      1262.48360 1178.38599  6.66%  2359  953s
   143    89     cutoff    8      1262.48360 1188.52936  5.86%  2500  982s
   177    89 1214.70146    7   14 1262.48360 1188.52936  5.86%  2512 1021s
   213    84 1226.76803    8   14 1262.48360 1188.52936  5.86%  2444 1062s
   250   106 1225.39887    8   15 1262.48360 1188.52936  5.86%  2453 1098s
   307   120 1250.59127   10   11 1262.48360 1188.52936  5.86%  2247 1129s
   364   108     cutoff   11      1262.48360 1188.52936  5.86%  2101 1160s
   437   118 1251.41581   10   11 1262.48360 1188.52936  5.86%  1962 1170s
   505   107 1255.07934   11   10 1262.48360 1188.52936  5.86%  1802 1211s
   570    87     cutoff   12      1262.48360 1188.52936  5.86%  1872 1254s
   632    96 1213.47014   10   14 1262.48360 1188.52936  5.86%  1917 1294s
   696    96 1257.13546   12   11 1262.48360 1188.52936  5.86%  1951 1333s
H  735    96                    1262.0046949 1188.52936  5.82%  1921 1333s
   772    88     cutoff   13      1262.00469 1188.52936  5.82%  1902 1350s
   872    72 1243.56273   11   12 1262.00469 1188.52936  5.82%  1794 1385s
   968    50 1260.40570   12   11 1262.00469 1188.52936  5.82%  1744 1412s
  1045    34     cutoff   13      1262.00469 1215.82281  3.66%  1703 1450s
  1111    31 1255.59904    8   17 1262.00469 1216.13759  3.63%  1713 1484s
  1166    12     cutoff    9      1262.00469 1216.13759  3.63%  1693 1500s
  1207     5     cutoff    8      1262.00469 1227.12120  2.76%  1669 1512s
  1232     0     cutoff   16      1262.00469 1256.62693  0.43%  1660 1539s

Cutting planes:
  Gomory: 1
  Implied bound: 323
  MIR: 688
  RLT: 1

Explored 1237 nodes (2080886 simplex iterations) in 1540.41 seconds (1505.91 work units)
Thread count was 24 (of 32 available processors)

Solution count 5: 1262 1262.48 1325.25 ... 5774.92

Optimal solution found (tolerance 1.00e-02)
Best objective 1.262004694935e+03, best bound 1.262004694935e+03, gap 0.0000%

Gurobi 11.0.3 (win64) logging started Tue Sep 24 14:46:37 2024

Set parameter LogFile to value "C:\Users\ealvarezq\Desktop\K.Investments_per_hour\IEEE118_mod1_ByStages_nc140/openStarNet_IEEE118_mod1_ByStages_nc140.log"
Set parameter Method to value 2
Set parameter MIPFocus to value 1
Set parameter Presolve to value 2
Set parameter RINS to value 100
Set parameter MIPGap to value 0.01
Set parameter Threads to value 24
Set parameter TimeLimit to value 259200
Set parameter IterationLimit to value 760000000
Gurobi Optimizer version 11.0.3 build v11.0.3rc0 (win64 - Windows Server 2019.0 (17763.2))

CPU model: AMD Ryzen Threadripper PRO 3955WX 16-Cores, instruction set [SSE2|AVX|AVX2]
Thread count: 16 physical cores, 32 logical processors, using up to 24 threads

Optimize a model with 198943 rows, 146783 columns and 492956 nonzeros
Model fingerprint: 0x3bd8d26e
Coefficient statistics:
  Matrix range     [5e-04, 9e+03]
  Objective range  [1e+00, 1e+00]
  Bounds range     [1e-04, 3e+00]
  RHS range        [2e-04, 3e+02]
Presolve removed 148062 rows and 64366 columns
Presolve time: 0.49s
Presolved: 50881 rows, 82969 columns, 198828 nonzeros

Ordering time: 0.02s

Barrier statistics:
 AA' NZ     : 1.697e+05
 Factor NZ  : 6.696e+05 (roughly 60 MB of memory)
 Factor Ops : 9.662e+06 (less than 1 second per iteration)
 Threads    : 24

                  Objective                Residual
Iter       Primal          Dual         Primal    Dual     Compl     Time
   0   1.58408159e+07 -4.66707005e+08  9.20e+01 5.79e+01  1.02e+04     1s
   1   1.82194084e+06 -1.26846897e+08  9.26e+00 1.02e-12  1.28e+03     1s
   2   4.71465466e+05 -2.47461844e+07  1.58e+00 1.14e-12  2.02e+02     1s
   3   1.87060464e+05 -3.19578797e+06  3.47e-02 7.96e-13  1.93e+01     1s
   4   8.73876630e+04 -5.44676478e+05  1.96e-03 6.82e-13  3.49e+00     1s
   5   3.75577573e+04 -1.41313402e+05  6.42e-04 9.09e-13  9.87e-01     1s
   6   1.67878789e+04 -4.55575853e+04  2.12e-04 2.84e-13  3.44e-01     1s
   7   1.12123476e+04 -1.74472966e+04  1.21e-04 1.47e-13  1.58e-01     1s
   8   7.69748078e+03 -5.98902753e+03  7.21e-05 1.88e-13  7.55e-02     1s
   9   4.99132385e+03 -2.70714820e+03  3.90e-05 1.57e-13  4.25e-02     1s
  10   3.18799978e+03 -7.12911292e+02  1.88e-05 2.19e-13  2.15e-02     1s
  11   2.40028791e+03  2.10470882e+02  1.09e-05 1.74e-13  1.21e-02     1s
  12   2.02582579e+03  6.40730154e+02  7.13e-06 1.40e-13  7.64e-03     1s
  13   1.80094499e+03  8.88515268e+02  4.95e-06 1.51e-13  5.03e-03     1s
  14   1.63851938e+03  1.01617182e+03  3.41e-06 1.68e-13  3.43e-03     1s
  15   1.56916212e+03  1.08495545e+03  2.77e-06 1.91e-13  2.67e-03     1s
  16   1.41464876e+03  1.18023322e+03  1.35e-06 2.14e-13  1.29e-03     1s
  17   1.35005013e+03  1.21082688e+03  7.68e-07 1.91e-13  7.68e-04     1s
  18   1.30210834e+03  1.24070886e+03  3.40e-07 1.90e-13  3.39e-04     1s
  19   1.28313863e+03  1.25190313e+03  1.77e-07 2.37e-13  1.72e-04     1s
  20   1.26875791e+03  1.25728399e+03  5.48e-08 2.16e-13  6.33e-05     1s
  21   1.26372248e+03  1.26126227e+03  1.30e-08 3.07e-13  1.36e-05     1s
  22   1.26229616e+03  1.26169295e+03  2.05e-09 2.56e-13  3.33e-06     1s
  23   1.26207835e+03  1.26187324e+03  1.33e-09 1.70e-13  1.13e-06     2s
  24   1.26203106e+03  1.26197243e+03  3.74e-10 3.04e-13  3.23e-07     2s
  25   1.26200600e+03  1.26199752e+03  1.32e-09 2.88e-13  4.68e-08     2s
  26   1.26200476e+03  1.26200457e+03  2.52e-10 2.29e-13  1.05e-09     2s
  27   1.26200470e+03  1.26200469e+03  5.06e-10 4.26e-13  1.89e-11     2s

Barrier solved model in 27 iterations and 1.63 seconds (0.93 work units)
Optimal objective 1.26200470e+03

Crossover log...

   14590 DPushes remaining with DInf 0.0000000e+00                 2s
       0 DPushes remaining with DInf 0.0000000e+00                 2s

     784 PPushes remaining with PInf 0.0000000e+00                 2s
       0 PPushes remaining with PInf 0.0000000e+00                 2s

  Push phase complete: Pinf 0.0000000e+00, Dinf 3.0830399e-12      2s

Iteration    Objective       Primal Inf.    Dual Inf.      Time
    3988    1.2620047e+03   0.000000e+00   0.000000e+00      2s

Solved in 3988 iterations and 2.13 seconds (1.16 work units)
Optimal objective  1.262004695e+03
